c 100 promenne 100 klauzuli
c weights 8 8 -8 4 -5 -7 -3 -6 1 3 -2 -6 -2 -1 2 -7 6 -5 -3 -3 0 -9 4 5 5 0 5 -1 5 6 4 -4 9 -5 -4 0 -6 -4 -9 -7 -6 -8 -10 6 -3 0 3 3 4 0 8 9 3 -7 5 -3 5 -2 2 4 -4 7 -5 1 4 -3 -7 0 -2 -8 -10 -9 -6 -3 -2 5 -8 4 -9 9 4 -10 0 4 -2 5 7 -3 2 -8 -6 -7 5 7 -3 3 3 -4 1 -1
p cnf 100 100
5 6 7 -8 10 -11 16 17 19 -20 21 22 -23 -24 25 -26 27 -29 -30 32 -33 36 37 38 -39 -41 43 -44 45 -46 47 -48 51 52 -53 54 55 56 -58 59 60 -61 -63 -67 70 -72 -74 -75 76 -77 78 82 -83 86 87 -90 -91 93 94 -95 99 -100 0
-1 4 -5 -6 -8 -11 12 13 15 -16 20 21 25 -26 27 30 -31 -33 34 35 -36 -38 -40 41 43 46 47 -49 -50 -53 -55 -58 -59 60 -61 62 -63 -64 65 -67 68 69 70 -71 -73 -74 78 -81 82 -83 84 85 86 88 -90 91 -92 93 -94 96 -97 -98 -99 0
-1 -4 5 8 10 11 -12 -15 16 17 -18 19 20 22 23 24 25 -27 -28 29 34 -35 -36 -37 38 -40 -41 -42 -43 44 -48 49 -50 51 -54 -55 56 57 58 61 -64 -65 66 69 70 72 -74 75 77 78 79 80 -83 -85 -86 -89 91 92 93 94 95 -96 -97 -98 -99 0
2 3 -4 -5 6 -8 -10 11 -12 13 -14 -15 16 17 -21 22 -25 -26 27 28 29 30 31 32 33 34 -35 37 38 39 -40 -42 45 47 49 -50 -52 -54 55 -56 -57 -58 -61 -62 -65 66 -68 -69 70 71 -72 73 -74 -75 77 -78 -80 82 -83 85 88 91 -92 93 -95 -97 98 -99 100 0
-1 4 -5 6 -8 -10 -12 13 14 -15 -17 19 20 -22 -24 -25 -26 27 28 -29 -30 -31 33 -34 35 37 -38 39 40 -41 42 -43 -45 -47 48 49 50 -54 55 56 -57 -58 -59 -60 -61 -63 -64 -65 -67 -68 70 71 -72 -73 -74 75 76 -77 -78 80 -81 82 84 85 -87 89 -90 -93 -95 -96 -97 -98 -99 100 0
1 -2 -4 5 -6 -7 -8 -10 12 -13 14 15 16 -17 18 -20 21 22 -23 -24 27 -28 -29 -31 32 -33 -35 36 -37 38 39 40 41 -42 43 -44 45 46 -47 48 49 -53 54 56 -59 60 61 62 -63 66 -68 -69 -71 72 76 -79 81 82 83 86 87 88 -89 90 -91 92 93 -94 -95 -96 -98 99 0
1 -2 3 5 -6 -7 -8 10 13 -14 -19 21 22 23 -24 25 26 -27 28 29 -31 32 33 -35 -37 -38 -39 40 41 -43 -44 45 47 -48 -49 53 -54 55 -56 57 -58 59 61 -62 -63 -64 -65 -66 -67 -68 70 -71 73 75 77 78 79 -81 82 83 84 85 87 -88 -89 90 -91 92 -93 94 95 -96 -97 -98 99 100 0
1 -2 3 -5 6 -7 9 -10 12 13 14 -16 17 -18 -19 20 -24 25 -26 -30 -33 34 -35 -36 37 -38 39 -40 -41 -43 44 -45 -46 47 -48 51 52 53 -54 55 -56 57 -60 -61 -62 -63 64 -65 -66 67 -68 71 -74 75 76 -77 -78 79 81 -82 -83 84 -85 90 -92 93 95 -96 98 0
-1 2 -3 -6 9 -10 11 12 13 -14 -16 -18 -21 22 24 -25 27 28 -34 36 37 38 -39 -41 42 43 -44 -49 50 -51 -53 -55 -56 -58 -60 61 -63 -65 66 -67 -68 69 70 72 73 -76 77 -78 -79 80 -82 -84 -87 -91 -92 -93 -94 -98 100 0
2 -3 -4 5 7 -10 11 -16 17 19 -22 26 28 -29 -30 31 -33 -38 -39 -40 41 42 -43 -44 -45 47 48 49 -52 -53 54 55 56 -58 -59 -62 -63 64 66 -67 68 69 -71 73 -75 -77 -78 80 81 83 87 88 89 -90 91 92 -93 -94 95 -98 0
1 2 -3 -5 -6 -7 8 -9 -10 11 12 -13 -15 16 18 -20 -21 22 -23 -25 26 -28 29 30 -32 -33 36 -37 38 -39 40 41 42 45 46 -47 48 -51 52 54 -55 -57 58 -60 -61 62 63 65 66 -67 68 69 71 72 -73 -74 75 77 -78 79 -80 -82 -85 89 -90 -91 93 -94 95 -96 97 -99 0
1 -3 7 8 10 11 12 13 -14 16 -20 21 22 -24 -26 -28 29 -30 -31 32 35 37 -38 -41 -42 45 -46 48 50 51 -54 55 56 -57 59 60 61 -63 -64 65 -69 -71 72 -75 76 77 78 -80 -83 84 85 86 88 -89 -90 91 92 94 -95 -96 -97 98 99 0
-1 -2 3 -4 -5 -7 8 -9 10 -12 -15 -16 -18 19 -21 -22 -23 24 25 -26 -27 -29 -31 -32 -33 35 -36 39 -40 41 45 -46 47 51 52 53 59 60 64 65 -66 -67 68 -69 -70 -75 -80 -82 -84 86 87 -88 89 -91 -92 93 -95 96 -97 -98 -100 0
-2 6 -7 11 -12 13 -14 17 -18 -19 -20 -24 -25 -26 27 29 30 -32 33 -34 -35 -38 40 -41 42 -43 -44 45 47 -48 -49 51 52 53 -56 -58 59 -61 62 -63 -64 65 -67 -69 -70 -71 76 77 78 79 81 82 84 86 -87 -88 -89 90 91 92 -93 94 -95 96 -100 0
1 -2 4 5 6 -7 -8 -10 -11 12 14 -17 18 19 -20 21 22 23 -25 26 27 -28 -30 -31 32 -33 34 -35 36 -37 -38 -40 -41 -44 45 -48 -52 -54 56 -58 -59 60 61 -62 -63 -64 -65 -66 -67 -68 -70 72 -73 74 75 -76 78 -79 -81 82 -83 -84 86 -91 -92 -93 -94 -95 -97 98 -99 0
-2 3 -5 -6 -7 -8 9 10 11 -12 13 16 -19 20 -21 23 26 28 -30 -32 -36 -38 -39 40 -43 44 47 49 -51 -52 53 -54 -55 56 57 -58 59 61 62 -63 -64 65 -67 -68 69 71 -72 -73 -74 -76 77 78 79 80 81 82 83 -84 -85 86 87 89 90 93 -99 -100 0
-1 2 -3 4 5 6 7 8 -9 -13 -14 16 -17 18 19 -20 -22 23 24 26 27 29 30 32 33 34 35 36 -38 -39 -40 41 42 -43 -44 45 46 47 -49 50 51 -52 -53 54 58 -59 -61 62 -65 -66 67 -68 -70 71 72 -73 75 -76 -77 -78 79 81 -82 83 87 -88 90 -92 93 94 -95 -97 -98 100 0
-1 -2 3 -4 -8 9 12 13 14 17 -18 -19 20 -21 22 -24 -26 -27 28 -29 -30 32 34 -38 -40 -42 43 -44 45 -49 50 -51 -52 -53 54 55 -58 60 61 63 64 66 -67 68 -70 -71 72 74 75 -78 80 82 -84 85 -86 89 90 -92 93 94 95 -97 99 0
1 -4 -5 7 -10 -11 12 -15 -16 17 19 21 -22 23 -24 25 26 -27 28 -29 31 -32 -33 -36 -38 -39 -40 -41 -42 43 47 -49 -50 -53 54 55 58 59 -60 -62 -63 -64 66 68 69 -70 72 -73 -74 -75 -76 77 78 79 -81 82 -84 85 -86 -87 -88 89 92 -93 95 98 99 -100 0
-1 -2 -3 -4 5 -6 10 -11 13 14 -17 18 19 20 21 22 -23 -26 -27 -28 29 -30 32 -33 34 35 -36 39 43 45 46 47 -48 52 -54 55 -58 -60 61 -63 -65 66 -67 71 73 -74 -75 -76 -80 -81 82 83 -85 -87 89 -91 -93 95 96 -97 -98 0
1 2 3 4 5 -6 -7 -10 12 14 -15 -17 -18 -19 -20 22 23 -29 -30 -32 34 -35 36 37 39 40 -41 -43 -44 46 47 -48 49 51 -52 -54 -56 57 58 -60 61 -62 -64 65 67 68 -69 70 71 72 -73 -74 76 77 78 -79 -80 81 -82 84 -86 87 90 -91 -93 -94 -95 -96 98 -99 -100 0
-1 2 5 -7 -10 -11 -12 14 17 -19 20 -21 22 -23 24 29 -30 -32 -34 -35 -38 -41 46 48 49 -50 51 52 -53 55 -56 57 59 -62 63 -67 -68 69 -72 -74 75 -77 -82 -83 84 -85 86 87 -90 -91 -93 94 96 -98 -99 0
1 2 -7 -8 -9 -10 12 -14 17 18 19 -20 21 -22 24 -25 26 -27 28 29 -30 31 -35 37 -38 39 41 -42 -45 -46 47 -49 51 -52 -53 -54 56 -57 58 -59 60 61 63 66 67 -68 -69 -70 -71 75 77 -78 -79 81 83 86 87 -88 89 -91 92 -93 94 -95 -96 -99 0
2 4 5 7 10 -11 -12 14 15 16 17 18 20 21 22 -24 25 -26 -27 28 -32 34 35 -36 -37 -38 39 -40 41 42 43 44 45 -46 48 -49 50 51 -52 -54 55 -56 -57 58 -60 61 -63 64 -65 -67 -68 69 -70 71 -73 74 -76 -77 78 -79 80 -84 -85 -87 88 -89 -90 -91 92 -94 97 99 0
-1 -2 -4 -6 7 8 10 -12 -13 -14 15 -16 -17 -18 -19 -20 22 23 24 28 30 31 32 -33 34 35 38 39 41 43 -45 46 47 -48 -51 52 53 54 55 -56 -58 62 63 -66 -67 71 72 74 75 76 -77 -78 -80 84 -87 -88 89 -90 -91 -92 -93 -95 -98 99 100 0
-1 2 -3 5 -6 -10 -12 -13 -15 16 -18 19 20 22 23 25 26 27 -28 30 31 34 -36 40 41 45 46 -47 48 -49 -50 -51 -52 53 -54 -55 -56 -57 -59 60 62 63 -66 67 -71 -72 73 75 76 77 -78 79 81 82 -85 90 -93 95 96 -97 98 99 0
-2 -3 7 -8 -10 11 -12 -13 14 -16 -17 -19 -20 21 -22 23 25 26 27 -29 -30 -31 32 -33 34 -37 -38 -39 -40 -41 -42 45 -46 47 -48 -49 -50 -51 -52 -54 55 -58 -59 62 -63 65 66 67 -68 -69 71 -72 -74 -75 76 -78 -83 -85 86 87 -88 91 -93 94 -98 -100 0
1 -3 4 5 -6 8 -9 -11 -12 13 -14 -15 -16 -17 -18 19 21 -22 23 -24 25 -26 -27 -28 29 -30 -31 33 -35 -36 37 -38 -39 -40 -42 43 -44 -45 -46 -47 -52 -55 57 58 -59 -60 62 -63 -65 68 -69 71 72 75 76 -77 79 81 -82 -83 85 -86 -89 90 92 -93 -96 -97 98 100 0
-1 2 -10 -11 -14 15 16 -18 -20 -21 -24 25 26 30 32 -33 -34 35 -37 38 -40 -41 -42 43 44 -45 -46 48 49 -50 51 53 -54 -55 -56 -57 -58 -60 62 -63 -66 67 -68 -69 -72 73 -74 -75 76 78 80 81 83 -84 -85 -86 88 89 -90 -91 93 94 96 97 -99 100 0
1 -2 -3 5 -6 -7 -9 10 -11 12 13 16 18 19 20 -21 23 -24 -25 -27 31 -32 33 -34 36 38 -40 41 43 -44 45 -46 -47 50 -51 52 -53 55 -56 57 59 60 62 -63 64 71 72 -73 -74 -75 78 79 80 -81 82 -83 84 85 86 87 -88 -90 93 -94 95 96 97 98 -100 0
2 -3 4 5 6 7 8 -9 -10 -11 14 15 -18 19 -20 22 24 -25 -27 -28 29 30 -31 32 -34 -35 -38 40 -41 -43 45 46 -48 -51 -52 -53 -55 56 -57 -58 -59 -61 62 -63 -66 68 69 -70 71 -73 -75 76 78 79 -80 82 -83 -84 86 -87 -92 -93 -95 96 -97 98 0
-1 -4 6 8 10 -12 15 -16 18 19 20 -21 -23 25 26 28 29 30 -31 -33 35 36 37 -39 40 43 -45 46 47 -49 -50 -51 -56 57 58 59 -62 63 64 66 67 68 -69 -71 -72 -74 -75 78 -79 80 -81 -83 -84 -87 88 -89 90 -91 92 93 -94 -95 96 -97 -98 99 -100 0
-3 5 6 -7 -8 -9 10 11 -12 14 16 17 -18 19 20 -22 -23 -24 25 26 27 -28 -29 30 -31 -32 -33 -37 38 -39 42 43 44 45 -47 48 49 -51 -52 53 -54 55 -56 59 -61 -64 -65 -66 -68 -70 73 76 -80 82 -85 86 88 -89 90 -92 -94 95 -96 97 98 99 -100 0
1 3 6 8 -9 -13 -15 -16 -19 20 21 22 25 -26 -30 -31 -32 33 34 -35 37 38 41 43 -44 45 47 48 -49 -51 -52 54 -56 58 61 -63 -64 -65 -66 67 68 -69 -71 -72 74 75 -76 79 80 -81 85 -87 88 -89 90 -91 92 95 -96 97 98 0
2 -3 -5 6 -7 -10 -11 -12 15 16 -18 -19 -20 -21 -22 23 -24 -25 -26 -27 28 30 32 34 35 37 38 -39 41 42 -43 44 -45 -46 47 49 -53 54 -55 56 -57 59 -61 62 65 -66 -67 -68 69 -71 72 73 -75 76 77 78 81 82 -84 85 86 -87 88 89 90 91 -94 -95 96 -97 -98 -99 -100 0
-2 -3 7 -8 10 11 -13 -14 15 20 -22 24 26 27 28 -30 31 33 34 36 37 38 40 45 46 -47 -49 51 52 53 55 -56 -57 59 -61 -64 65 66 -67 -69 73 -76 77 78 -79 -80 -81 82 83 -84 -87 -88 89 -90 -91 -92 -93 -95 98 -99 0
-1 5 6 -7 8 -10 -13 14 15 -16 -18 19 21 -22 -23 -24 26 -27 29 -30 -31 -32 -33 -36 40 -41 -42 44 -45 46 48 50 51 52 54 55 -56 -57 -61 -62 63 -64 -67 68 -69 -70 71 -72 73 -74 77 78 -79 80 82 -84 86 87 88 -89 90 -91 -92 93 94 95 96 97 -99 -100 0
-1 2 5 -6 -7 -9 -10 13 14 -15 -18 19 21 -22 23 25 -26 -27 28 -30 -31 -34 35 36 37 -39 -40 -41 42 -43 -44 45 -46 -48 49 -52 53 54 -55 57 58 -59 -60 62 63 -64 66 -70 -73 -74 -76 -77 78 -80 81 82 -83 -84 -86 87 88 89 -90 -91 -94 -95 96 98 99 -100 0
-2 -3 -4 5 -6 -7 8 9 10 11 12 13 -16 -17 18 19 20 -22 23 -24 25 -27 28 -30 -34 35 36 38 39 41 43 44 45 -46 48 -50 -52 53 54 55 -58 -59 -61 63 -64 -65 -66 67 70 71 72 74 -75 -76 77 78 83 84 86 87 -90 91 92 -93 94 95 97 98 -99 0
2 3 -6 -8 9 10 -11 -13 16 -17 -20 -21 22 -23 -24 25 -26 28 -29 30 -32 -36 -40 -41 43 -44 45 -48 -50 51 52 -53 -56 -57 -58 60 61 62 63 64 -66 69 70 -71 72 74 76 77 78 -79 -80 -81 -83 84 86 87 88 -89 90 -91 92 -93 94 95 -97 -98 99 100 0
3 4 5 6 8 10 -12 -13 14 15 16 -17 19 -20 -22 -24 31 -32 -33 -34 -35 -37 -38 39 -40 41 -42 43 -44 -45 46 -49 -50 51 -52 53 -57 58 -60 61 -63 -65 -67 -68 70 71 73 74 75 -76 81 -83 84 -85 -86 87 -88 -89 90 -91 -92 -93 -94 -96 -98 -100 0
4 5 -6 8 -11 -13 -15 -16 18 -19 -20 -21 23 -25 -27 -28 30 -32 34 36 37 -39 -40 41 -42 43 44 -45 -47 -48 50 -53 54 55 -56 57 -58 -59 60 -61 62 -65 66 -68 72 -76 77 -79 82 -84 85 -86 -87 -88 89 -90 91 -92 -93 99 100 0
-1 -3 -5 6 7 11 -12 -13 -14 -15 -16 -17 18 -19 21 22 23 24 25 26 27 -28 29 30 -31 32 -33 37 39 41 42 -43 -46 47 48 49 -53 -55 58 -61 62 -64 65 68 -70 -71 72 -73 74 -75 -77 -79 -80 -82 84 85 88 -89 90 91 93 -95 -96 -97 -98 -100 0
-1 -3 -4 5 6 7 -9 -11 14 15 16 17 18 -19 -20 21 -22 -24 25 -26 -27 -28 -31 33 35 36 -37 -39 40 -42 -43 -44 -45 46 48 -49 50 51 55 -56 -57 -58 60 -61 -64 -66 67 -68 -70 73 -74 78 82 -83 -84 85 86 88 -89 -91 93 94 -96 98 0
1 3 -4 -8 9 -10 11 -12 13 14 -15 -16 18 -19 21 23 25 26 -27 28 29 -32 33 34 35 36 -37 -38 -39 41 -42 43 -44 45 -47 49 50 52 -54 -55 -56 58 -59 60 -61 -63 -64 -65 66 67 69 70 71 72 76 -77 78 79 83 -86 -88 -90 91 -93 94 95 -96 97 -99 0
1 2 3 -4 5 6 -7 8 9 11 12 -13 -16 -17 -19 23 -25 -26 28 -29 -30 -31 33 -34 -35 -37 38 39 40 -41 42 -45 -46 -47 48 -49 -50 51 -52 -54 -55 56 -57 -58 59 -60 -61 -62 64 69 -70 74 77 78 -79 -80 81 83 -84 -85 86 87 88 89 -90 -91 92 93 95 -96 -98 -100 0
-2 4 -5 6 -11 13 -14 15 -16 17 -20 22 -25 -26 32 -33 -34 35 -37 -38 -39 40 -41 42 43 -44 -45 -47 -49 -50 51 -52 -53 -54 57 58 -59 60 62 64 -65 -66 67 69 70 71 -72 73 -74 75 79 -80 -81 -85 86 -87 -89 -90 91 -92 -93 -94 -95 96 -97 98 -99 0
-3 5 6 7 9 10 -11 12 -13 -14 -15 -16 -17 18 -20 21 -23 -26 30 31 32 -33 -34 -35 -36 -38 42 -44 -45 48 49 -50 -51 -53 -54 -55 -56 -58 -59 60 62 -64 -65 69 -70 -71 72 73 75 -76 77 -78 80 81 82 -83 -84 85 87 -88 -89 90 91 -94 96 97 98 -99 0
1 2 3 6 8 9 10 11 -12 -13 -15 -16 -17 20 -21 25 26 -28 -31 32 33 -35 -37 38 -41 -44 47 48 -49 50 -52 53 -54 55 -56 -59 -60 63 -64 65 66 67 68 -69 -70 -71 72 77 80 81 82 -85 -87 -88 -90 -93 -95 96 99 100 0
2 4 -6 -7 -10 -11 -15 -16 -17 -18 -19 -20 21 22 -24 25 26 27 28 -30 31 32 33 34 -37 -39 41 42 43 -44 -45 46 47 -49 51 54 -55 -56 57 58 -60 -62 63 66 67 68 -71 -72 73 -74 75 76 77 -78 79 -81 -85 86 -87 -88 -90 91 -94 -95 96 98 99 -100 0
1 3 -4 -5 6 -7 -8 -10 11 13 14 -15 -16 17 -18 -21 -26 -28 -29 30 31 -32 33 -34 -35 -36 37 39 -40 41 42 -44 45 46 47 48 50 51 -53 55 -57 59 62 67 68 -69 -71 72 -73 74 75 -76 78 79 82 84 85 87 88 89 90 92 -93 94 -95 -96 -98 -99 -100 0
3 -5 6 7 9 -10 13 14 -16 17 18 -19 20 -21 23 24 -26 27 -30 32 -35 -37 -38 -40 -41 -42 -45 46 47 48 -49 -51 -52 55 57 -58 59 -62 -63 64 68 -69 71 72 -73 -74 75 -76 -78 79 82 -87 -89 90 -95 -97 -98 -99 100 0
-4 5 -6 7 -8 -9 10 11 12 -13 -14 15 -17 -18 19 -20 26 -27 28 -31 -32 -33 -34 -37 39 -40 -41 43 -44 -47 -48 50 -51 53 54 56 58 -60 61 62 63 -65 -67 -68 69 70 73 -75 76 77 -78 79 -80 81 -82 -84 -85 87 90 -91 -92 93 94 95 -96 97 99 0
3 4 6 8 -9 -10 11 -13 17 18 -20 -21 22 -23 -25 -26 -27 29 -30 31 33 -34 36 37 -38 -40 43 -44 48 -50 -51 52 53 -54 55 56 58 59 60 61 -63 -66 67 68 69 -70 71 -74 -76 77 -79 80 81 -82 -85 -86 87 91 92 93 98 -100 0
1 -3 -4 5 6 9 -10 11 13 14 15 -16 -17 -18 19 23 24 -25 -26 -27 28 29 -31 32 -33 34 35 39 40 41 -42 43 -44 -47 48 49 50 54 -55 -56 -57 -62 63 -64 65 -66 67 69 -72 74 -77 -79 80 82 -84 -87 -88 89 93 95 -96 -97 99 -100 0
-1 -2 3 -4 5 -7 8 10 -11 12 14 16 20 21 -22 -25 26 -27 -28 -29 33 -34 -38 39 -41 42 43 -44 -45 46 48 49 -50 51 -52 -54 55 56 58 -59 -60 -62 63 65 66 67 -68 69 -72 73 -75 -76 77 -80 81 83 -84 85 -86 87 89 -92 -93 -94 -96 -97 -100 0
-1 -2 3 6 -10 11 -12 -17 19 -20 -24 25 26 27 28 -29 -32 -34 -35 37 38 39 40 -41 -43 44 45 46 -47 48 50 -51 52 53 -56 57 -58 60 63 64 -65 66 67 68 69 70 71 -72 -73 74 -75 -78 79 80 -81 -82 83 84 85 -86 88 -89 -90 91 92 -93 -94 96 -97 -98 99 -100 0
-2 3 5 6 7 -8 9 -10 -11 -12 15 -16 -17 -18 -19 21 -23 24 -25 -26 27 -28 -29 -31 -32 33 -35 36 -38 40 41 -44 45 46 47 48 49 50 52 -54 -55 56 -59 61 -65 66 69 70 72 -74 -75 -77 -79 -80 81 82 83 84 -88 89 -93 94 -95 96 -97 -99 -100 0
-1 -3 4 -5 6 -7 12 -13 14 15 16 17 19 20 21 22 24 -25 -26 27 31 32 -33 34 36 38 -39 40 -42 45 46 47 48 53 -56 58 -59 -60 62 -63 64 65 66 67 -68 69 -70 -72 -74 75 -77 79 80 -81 -82 -85 86 -88 -89 90 -91 -92 -93 -94 -95 97 -99 0
-1 -2 5 -6 7 -8 9 -11 -12 -13 -14 -15 16 -17 -18 19 21 22 23 -24 26 27 28 29 -30 -31 32 -34 36 -37 -38 42 -43 45 46 47 -48 -49 -50 -53 -54 58 59 60 -64 67 -68 69 71 72 -73 -75 77 78 -82 83 85 -86 -88 89 -91 -92 96 98 99 0
-2 -4 -5 6 -7 8 10 -11 -14 -16 19 -20 21 -22 23 24 -25 -26 -27 30 31 32 33 34 36 -38 39 -42 44 -47 -48 -49 -50 -51 52 53 54 -55 -58 59 -60 61 -62 63 -65 -66 -67 -68 -70 71 75 76 -78 -79 -80 -81 85 -87 -88 -89 91 -92 -96 -98 -100 0
1 2 3 -6 7 9 10 -11 -12 -13 -14 -15 17 18 19 20 -21 -22 23 -24 -25 26 -28 -29 30 -31 -32 34 35 -37 39 40 -41 42 43 -44 45 47 49 50 51 -53 -54 -55 56 57 60 61 -62 -63 64 65 -66 -68 -69 70 -71 -73 -74 75 -76 78 -79 80 -83 -84 -85 87 88 89 -90 91 95 100 0
1 -3 4 5 6 -7 -8 15 16 18 -20 22 23 24 -28 -29 30 31 32 -34 -35 36 -37 -38 39 40 41 -42 43 46 -50 -51 53 -54 55 56 -57 59 -60 61 -62 63 64 65 68 -69 70 -71 72 -73 74 75 -76 -77 78 -79 -80 -81 -82 85 86 87 -89 90 -91 -92 93 -94 -95 -98 99 -100 0
1 -3 -5 -6 -7 9 11 -12 15 16 -17 18 -19 20 21 -22 23 -24 26 -27 -28 -29 -30 31 -33 34 -36 -37 -38 -39 -40 -41 -44 -45 46 -47 -48 -50 -53 -54 55 -56 -58 59 61 -64 -65 67 69 70 -71 -73 75 -76 -82 -83 -84 85 87 89 90 91 -92 -94 -95 96 98 99 100 0
2 -3 4 6 7 -8 9 11 -13 -17 18 -21 22 23 24 26 28 -29 30 -33 -34 -35 -36 37 -38 -39 40 -41 -43 -44 45 -46 48 -49 -51 52 -53 55 -56 -57 59 62 64 -67 -69 -70 71 -73 74 77 78 -79 -82 -83 -84 85 87 88 -89 90 91 -92 -94 98 99 0
1 2 3 4 5 -9 10 11 13 -14 15 18 -19 -20 -25 26 -27 -29 -30 31 32 -33 35 38 -39 -41 42 43 45 -46 47 48 50 53 54 -55 57 58 -59 -60 61 -63 -64 65 -67 68 -69 70 -71 72 73 -74 77 -78 -79 81 -82 -83 -84 86 -87 88 -92 -93 -94 -95 97 98 100 0
2 4 5 -6 -7 -9 10 11 12 13 14 -15 17 18 20 -24 26 -27 29 31 33 -34 35 36 38 -39 40 -41 42 43 44 -45 47 -49 -50 51 -52 53 54 -55 57 -58 59 60 -61 -62 63 64 65 67 69 -70 71 74 75 76 -78 -79 -81 82 -84 -89 -92 -93 94 -97 98 99 100 0
2 -3 -5 6 7 10 -11 13 -14 16 17 18 20 -23 -27 -28 30 31 -32 -33 -34 36 -37 39 40 42 -43 44 -46 -48 -49 -52 -53 -54 -55 -57 -59 63 64 -65 -66 67 68 -69 -71 74 -78 80 -83 85 -86 -89 90 -91 93 -95 -96 -97 98 -99 100 0
2 -3 -4 -5 7 -8 -9 10 -11 12 13 14 -15 16 -18 19 -20 21 22 -24 -25 28 29 32 33 34 -36 37 38 40 -41 -43 44 45 47 49 -50 51 52 -55 -57 59 62 63 -64 -66 67 -68 -69 71 72 75 -77 78 -79 80 -81 -85 -86 87 88 -89 90 91 92 93 -96 98 100 0
5 -7 -9 -10 -13 15 17 19 23 -24 -25 26 28 -29 30 31 34 -35 -36 -39 40 42 44 -45 46 47 -50 51 -52 53 54 -55 56 -59 60 -62 -63 65 -66 -67 -69 -72 -73 -74 75 -76 78 79 -80 -81 -82 83 -84 -86 -87 -89 -90 -92 93 95 97 98 100 0
1 -3 7 8 10 12 13 15 -16 17 19 -20 23 24 -26 -28 -29 -30 31 -32 33 -34 -36 40 -43 44 45 46 -47 48 -51 52 53 55 -56 -57 -60 61 -68 70 73 -74 75 -77 -78 -79 80 -84 -85 -86 -90 91 -92 93 -94 95 -98 0
2 -4 -6 -7 -8 10 11 -12 -13 -14 -15 -16 -17 -18 -19 -20 21 -22 -23 24 -25 -26 -27 -28 -29 -30 -32 -33 -35 -39 -40 41 -42 -43 44 -45 -46 -48 -49 -50 51 -52 53 -54 57 58 61 -62 -64 -66 67 -69 70 71 -72 -74 75 77 78 -81 82 -83 86 -88 89 -90 92 -94 95 96 -98 0
-1 -3 5 -6 7 -8 -10 11 -13 -14 15 -18 -19 23 -24 -25 -26 27 -30 -31 -32 33 -34 -36 -38 -39 41 -43 -44 -45 -46 -48 49 52 -54 -56 -58 -59 61 -62 63 -65 66 -67 -69 -72 -73 -74 75 -76 77 79 -80 -83 -84 -85 86 88 89 -90 -93 -94 -95 96 100 0
-2 3 -4 -5 6 7 -8 -9 10 -12 -13 -15 -17 -19 -20 -24 -25 28 29 -30 -31 -32 -34 37 38 39 -40 -42 43 -44 46 -47 -49 -50 51 -53 -55 56 57 58 -59 -60 64 -65 -68 69 -70 72 73 -75 76 77 78 79 80 -82 83 86 91 92 93 94 -96 97 98 -99 -100 0
-1 2 4 -5 6 -7 -8 10 -11 12 -13 14 18 19 -21 -25 26 27 28 29 33 34 35 -36 39 -40 41 -42 -43 45 48 49 51 -52 54 55 -58 -60 62 65 66 68 -69 70 74 75 76 78 -79 -80 81 82 -83 -84 -85 -86 87 88 -89 91 -92 -93 94 -95 -97 -100 0
-1 3 -5 -6 7 8 -10 -13 -15 -16 17 18 20 -21 -24 25 27 28 31 34 35 -36 -37 38 -39 40 42 43 -44 46 -47 -48 49 -50 54 -57 -59 62 -63 -65 -66 -68 -69 -70 -71 72 -73 -76 78 -79 -80 -81 82 -84 -85 -86 88 -89 90 -91 92 96 -97 -98 -99 0
2 3 5 6 -8 9 10 11 -12 -13 -14 -15 -16 -20 21 -22 23 24 -26 27 30 -31 32 -33 34 38 -42 -43 -44 -46 47 49 -50 -51 -54 -55 -57 58 -60 -62 -64 66 -67 68 69 -70 -71 -72 -74 75 76 -77 79 -82 -83 -86 89 90 91 92 -93 -94 -95 -96 97 99 0
1 2 -3 4 -5 6 -7 9 -12 13 14 18 20 21 -22 23 -24 -25 -26 28 29 -31 -32 -33 -34 38 -40 -42 44 -45 -47 48 55 57 -58 -59 -60 -63 -64 -65 67 -69 70 71 -72 73 74 75 76 77 -78 -79 -80 -83 -84 86 87 -88 -89 -90 -91 -92 96 97 -99 0
1 -2 -3 -4 -5 -7 8 -11 14 -15 -16 17 18 -19 -20 -24 27 -28 -30 31 35 -36 -37 38 -39 40 -42 43 -44 -45 -46 47 48 49 -50 51 52 53 54 55 56 58 -59 -60 61 62 65 69 -72 -73 -74 75 76 78 -80 -81 -82 -84 -85 -86 88 -89 -91 -94 95 -96 -98 99 -100 0
2 -3 -5 -6 9 11 -14 -15 -16 17 -18 -19 -20 21 -22 24 26 -27 -29 -30 -31 -32 33 -34 -35 36 38 -40 41 42 43 -44 45 46 48 49 -52 55 -56 57 60 -61 62 -64 -66 -67 68 71 -72 73 74 75 -76 -78 -79 82 -83 -84 -85 -86 -88 -89 -90 -93 -94 -96 -97 -98 100 0
1 -2 3 -9 -11 -12 13 -14 -17 -18 -19 20 21 -22 -23 24 25 -26 29 30 32 33 34 35 36 -37 -38 39 -41 43 -44 -45 -46 -47 -48 -50 -52 53 -54 -55 -56 -57 58 -59 -61 62 63 65 -66 67 68 71 -72 75 -77 -80 81 83 84 85 87 -91 -92 94 -95 -97 99 -100 0
3 4 5 -6 7 8 -9 -10 -11 12 -13 -14 15 16 17 18 20 -21 -22 24 -26 29 30 31 34 -35 -37 -38 -39 -40 -41 -43 44 46 48 -52 53 54 -55 -56 57 59 62 63 -64 -65 -68 70 -71 73 -74 75 -80 -81 -82 -83 -84 85 86 87 88 -89 90 -92 95 96 -98 -100 0
1 2 -4 -6 -7 8 -9 -10 11 12 -14 16 -17 18 -19 -20 21 -22 -24 25 -28 -31 35 -36 -39 43 44 -45 46 -48 49 51 52 -54 -56 -58 -59 60 -63 64 65 67 -69 70 72 74 77 78 -79 -80 82 -83 -84 85 87 88 91 93 95 96 -97 -98 -99 100 0
-1 -2 -3 -4 5 7 9 -10 11 -12 -14 -16 -17 -18 19 -20 -21 22 -23 24 28 31 -32 33 35 36 38 40 41 -42 43 -44 -46 -47 -51 -52 54 -55 -56 57 -58 -62 -63 -64 -65 66 -67 68 70 71 72 73 77 -81 83 84 -85 -86 87 -88 89 -90 91 92 -94 -95 96 -97 -98 99 -100 0
1 2 3 5 6 8 -10 13 14 -17 18 -20 -22 -23 24 29 32 33 34 37 -38 40 -41 42 -43 45 -46 50 -51 52 55 -56 -57 -59 -61 -63 66 67 -69 70 71 -72 -73 74 75 76 -77 78 -79 80 83 -84 85 86 -87 -89 -90 92 -93 94 95 98 -99 100 0
1 -2 -6 -7 -9 -10 11 -12 13 14 15 17 -18 19 20 -21 -22 23 24 25 26 -27 -28 29 30 -31 32 -33 -34 -35 36 37 38 39 40 41 -42 -43 -45 -46 -47 49 50 -51 53 54 -56 57 -58 -59 60 61 63 65 69 72 74 75 79 80 82 -84 86 -87 88 -89 93 94 95 96 -97 98 99 100 0
-1 2 -4 -6 -7 -8 -9 11 -12 -13 -15 -16 17 18 -19 21 -22 -23 -25 -26 -28 -29 -33 -34 35 37 38 -39 41 42 43 -44 45 47 -48 51 52 -54 -56 -57 -58 -61 62 64 -65 -66 -67 68 -69 73 -75 -76 -77 -78 79 -80 81 -83 84 -85 87 88 -89 -92 94 95 96 97 -98 -100 0
-1 -2 3 -4 5 6 -7 8 -10 -11 -12 13 14 15 -16 17 19 21 22 -23 24 25 -26 -27 30 -31 -32 34 -35 36 37 39 -40 -41 42 44 -46 48 -50 -51 52 -54 56 -57 -58 -59 64 -65 -66 -69 70 -72 -73 -74 76 -77 -78 79 -80 -81 -82 83 84 -85 -86 -87 93 -94 -95 96 -98 -99 -100 0
1 -2 6 7 -8 11 -12 -13 14 -15 -17 19 20 22 -24 25 -27 -30 31 34 -35 36 37 38 -39 40 -41 -43 45 49 50 51 52 -53 -54 -55 -57 58 60 -62 -63 65 66 67 69 70 71 -72 -73 -74 76 -77 -78 79 -80 81 -82 -84 85 -86 -87 -88 -89 90 -92 -95 97 98 -99 100 0
1 2 4 6 7 8 -9 12 13 14 15 16 -17 18 -19 20 21 23 25 -26 -27 28 29 30 31 -32 -33 -34 -35 36 -39 40 41 42 -43 44 45 -46 47 48 -49 50 51 -52 -53 -54 55 -57 59 -61 -63 64 65 68 69 70 71 72 -73 74 75 77 -80 83 -84 -85 86 -87 -90 91 -92 93 -96 -98 0
2 3 5 -6 -10 -11 13 17 18 21 -22 23 -24 -25 26 -27 -28 31 -32 -34 -36 -37 -38 39 -42 -43 -44 47 -48 51 53 54 -55 56 59 60 62 -63 64 -65 66 -67 68 71 72 73 -74 -75 -78 -79 -82 85 86 -87 89 90 92 95 98 -100 0
1 2 5 6 -8 9 -11 -17 -19 20 -21 -22 23 28 30 -31 -33 -35 37 38 -39 -40 -41 -42 -44 -45 -47 -48 -49 50 -53 55 56 -57 -58 59 -61 62 -64 66 -67 -69 71 72 -73 74 77 78 81 83 -86 -87 88 90 91 -92 93 94 -96 97 98 -99 -100 0
-2 -4 -5 -7 8 -11 -14 16 17 19 20 -21 -22 -24 -25 -26 29 -30 -31 33 34 35 -37 -39 43 44 48 -50 -51 52 53 -54 -56 58 -60 -61 -62 64 -65 -69 70 71 -74 -76 78 79 81 82 -85 86 -87 -88 -90 -92 94 -95 -97 98 -99 0
-1 -2 5 -6 -9 -10 11 12 13 14 -15 -17 -20 -21 22 -23 -24 25 -26 -28 -30 32 -33 34 37 -38 39 -40 44 -45 -48 49 51 -53 -56 60 61 -62 -63 -65 -66 67 -68 -70 71 73 75 -76 79 80 -81 82 84 -85 86 -89 90 91 92 -93 94 -96 -97 -100 0
-1 7 -8 9 10 13 14 15 -16 19 20 -21 -24 -25 26 27 28 30 -31 32 33 34 -35 37 38 39 41 42 -43 -44 45 47 48 -49 51 -52 -53 54 55 58 60 61 -62 -63 65 -66 67 70 -71 -72 73 74 75 76 77 -78 -79 -80 -81 82 -83 -86 87 88 -89 -90 91 -92 93 94 95 96 -97 99 0
2 4 5 9 -10 13 17 -18 -19 -20 -22 23 -24 -26 27 28 30 -32 33 -34 35 36 -37 -39 40 41 -44 -45 -46 49 50 52 -53 -55 56 59 -60 -61 63 64 -65 -66 -68 69 -70 -71 72 -74 -75 76 -77 -79 80 81 -82 -84 -85 -86 88 -89 90 -91 -92 93 -95 96 -98 -99 -100 0
-3 -4 6 -7 -8 9 10 -12 -13 14 16 18 20 -22 -23 -25 26 -27 -28 31 -32 33 -34 -36 37 -38 -39 -42 -43 44 46 48 50 52 54 56 57 -60 -61 -62 63 -64 -65 -66 -67 -70 -74 -75 -76 77 80 81 -85 -89 91 92 93 94 -95 -97 98 -99 0
-1 -3 6 -8 9 10 -11 13 14 15 16 17 -18 19 -20 21 22 -23 -24 -26 27 28 29 30 -33 -35 -36 37 -38 -39 40 41 -42 -43 45 46 -48 49 51 -52 -55 -56 59 61 62 -63 66 67 -68 -69 -71 72 73 -74 -75 -76 78 -79 81 -82 83 84 85 87 -88 -89 90 91 92 94 95 96 -98 -99 100 0
-1 -3 4 5 -6 -9 10 -12 -13 -14 18 -20 -21 -22 23 24 -25 -27 -28 -29 30 32 33 34 -35 36 37 38 39 -40 41 42 -43 44 46 -47 48 49 50 52 -53 54 -56 -58 59 -60 -61 62 -64 -65 -67 68 -69 -70 -71 -74 -76 77 79 -80 -81 82 84 -85 -86 -87 88 -89 -91 -92 -93 -94 -95 96 -97 98 100 0
-2 -3 -5 -6 7 8 -10 -12 -13 14 15 18 -20 21 22 -23 24 -26 27 -28 29 -30 31 -32 -34 -37 -38 -40 -42 44 -47 52 54 55 56 58 59 -61 -62 63 65 -66 -68 -69 70 71 -72 73 -75 76 77 -78 79 80 -83 -84 -87 90 92 93 95 -97 -98 0
